\ Equation counts
\     Total        E        G        L        N        X        C        B
\	88	88	0	0
\
\ Variable counts
\                  x        b        i      s1s      s2s       sc       si
\     Total     cont   binary  integer     sos1     sos2    scont     sint
\	50	50

\ Nonzero counts
\     Total    const       NL      DLL
\
\
Minimize
 obj: [ - 8.0 x_1 * x_1 - 21.5 x_1 * x_3 + 18.0 x_1 * x_4 + 10.5 x_1 * x_5 - 5.5 x_1 * x_6 + 21.5 x_1 * x_10 + 17.0 x_1 * x_15 - 1.5 x_1 * x_18 + 24.0 x_1 * x_20 - 21.5 x_1 * x_21 + 21.5 x_1 * x_29 + 17.5 x_1 * x_33 + 10.0 x_1 * x_35 + 13.0 x_1 * x_43 + 23.5 x_1 * x_44 + 7.5 x_1 * x_47 + 8.5 x_2 * x_3 - 5.5 x_2 * x_5 + 10.5 x_2 * x_12 - 20.5 x_2 * x_14 + 20.5 x_2 * x_20 - 6.5 x_2 * x_22 + 13.0 x_2 * x_27 - 1.5 x_2 * x_28 - 14.5 x_2 * x_29 + 4.0 x_2 * x_31 - 22.0 x_2 * x_38 - 21.0 x_2 * x_44 + 16.0 x_2 * x_48 - 24.0 x_2 * x_50 - 21.5 x_3 * x_1 + 8.5 x_3 * x_2 + 12.0 x_3 * x_3 + 22.5 x_3 * x_4 + 21.0 x_3 * x_9 - 22.5 x_3 * x_10 + 19.5 x_3 * x_11 + 18.5 x_3 * x_17 + 4.0 x_3 * x_20 + 24.5 x_3 * x_22 - 14.5 x_3 * x_23 + 14.0 x_3 * x_24 - 14.5 x_3 * x_26 + 12.5 x_3 * x_31 - 22.0 x_3 * x_32 + 22.5 x_3 * x_37 + 17.0 x_3 * x_39 + 17.5 x_3 * x_42 + 14.5 x_3 * x_45 + 14.5 x_3 * x_46 + 20.0 x_3 * x_48 + 18.0 x_4 * x_1 + 22.5 x_4 * x_3 + 16.5 x_4 * x_4 + 6.5 x_4 * x_6 + 20.0 x_4 * x_10 + 23.0 x_4 * x_19 + 17.0 x_4 * x_22 - 22.5 x_4 * x_23 - 21.5 x_4 * x_32 + 4.0 x_4 * x_33 + 15.5 x_4 * x_34 + 9.0 x_4 * x_37 - 7.5 x_4 * x_38 - 4.0 x_4 * x_39 + 1.0 x_4 * x_40 - 17.0 x_4 * x_43 + 20.5 x_4 * x_45 + 10.5 x_5 * x_1 - 5.5 x_5 * x_2 + 3.5 x_5 * x_12 - 19.0 x_5 * x_13 + 0.5 x_5 * x_17 - 7.0 x_5 * x_18 + 9.5 x_5 * x_19 + 24.5 x_5 * x_21 + 15.5 x_5 * x_23 + 20.5 x_5 * x_28 + 13.0 x_5 * x_31 - 9.0 x_5 * x_33 + 24.5 x_5 * x_37 + 13.0 x_5 * x_40 + 23.0 x_5 * x_44 - 5.5 x_6 * x_1 + 6.5 x_6 * x_4 - 1.0 x_6 * x_9 + 14.5 x_6 * x_11 + 21.5 x_6 * x_26 - 17.5 x_6 * x_31 - 18.5 x_6 * x_39 - 4.5 x_6 * x_44 - 23.5 x_6 * x_45 + 23.5 x_6 * x_46 + 17.0 x_6 * x_49 + 23.0 x_7 * x_10 + 9.0 x_7 * x_14 + 4.5 x_7 * x_16 + 5.0 x_7 * x_29 + 8.5 x_7 * x_34 + 20.5 x_7 * x_38 - 8.0 x_7 * x_39 - 13.0 x_7 * x_50 + 2.5 x_8 * x_11 - 2.5 x_8 * x_12 - 23.0 x_8 * x_22 + 22.5 x_8 * x_30 + 18.5 x_8 * x_35 - 7.0 x_8 * x_36 + 9.0 x_8 * x_44 - 10.0 x_8 * x_45 + 1.0 x_8 * x_47 + 21.0 x_9 * x_3 - 1.0 x_9 * x_6 + 23.5 x_9 * x_10 - 13.5 x_9 * x_12 + 16.0 x_9 * x_18 + 13.0 x_9 * x_19 + 24.0 x_9 * x_26 + 17.0 x_9 * x_28 + 17.5 x_9 * x_30 - 21.5 x_9 * x_34 + 6.5 x_9 * x_39 - 6.5 x_9 * x_42 + 3.0 x_9 * x_44 + 21.5 x_10 * x_1 - 22.5 x_10 * x_3 + 20.0 x_10 * x_4 + 23.0 x_10 * x_7 + 23.5 x_10 * x_9 + 6.5 x_10 * x_10 - 10.5 x_10 * x_11 - 14.0 x_10 * x_13 - 9.0 x_10 * x_14 - 4.5 x_10 * x_21 + 10.5 x_10 * x_32 - 11.5 x_10 * x_34 + 4.5 x_10 * x_35 - 19.5 x_10 * x_38 + 18.5 x_10 * x_39 + 4.0 x_10 * x_42 + 22.5 x_10 * x_50 + 19.5 x_11 * x_3 + 14.5 x_11 * x_6 + 2.5 x_11 * x_8 - 10.5 x_11 * x_10 + 6.0 x_11 * x_13 - 17.0 x_11 * x_18 + 15.5 x_11 * x_19 - 2.5 x_11 * x_22 - 5.5 x_11 * x_24 + 9.0 x_11 * x_30 + 13.5 x_11 * x_35 - 5.5 x_11 * x_38 - 13.5 x_11 * x_40 - 19.0 x_11 * x_47 + 10.5 x_12 * x_2 + 3.5 x_12 * x_5 - 2.5 x_12 * x_8 - 13.5 x_12 * x_9 + 18.5 x_12 * x_12 + 17.5 x_12 * x_14 - 4.0 x_12 * x_17 + 0.5 x_12 * x_18 + 24.5 x_12 * x_24 + 7.5 x_12 * x_34 - 3.0 x_12 * x_37 + 8.5 x_12 * x_39 - 19.5 x_12 * x_41 + 10.0 x_12 * x_42 - 1.5 x_12 * x_44 + 24.5 x_12 * x_46 + 21.5 x_12 * x_49 - 19.0 x_13 * x_5 - 14.0 x_13 * x_10 + 6.0 x_13 * x_11 - 18.5 x_13 * x_13 - 24.0 x_13 * x_14 + 8.0 x_13 * x_20 - 6.5 x_13 * x_31 + 8.0 x_13 * x_34 - 1.0 x_13 * x_41 - 8.0 x_13 * x_50 - 20.5 x_14 * x_2 + 9.0 x_14 * x_7 - 9.0 x_14 * x_10 + 17.5 x_14 * x_12 - 24.0 x_14 * x_13 + 3.0 x_14 * x_19 + 13.5 x_14 * x_30 - 1.0 x_14 * x_32 - 23.0 x_14 * x_36 + 6.0 x_14 * x_40 - 20.0 x_14 * x_42 - 6.0 x_14 * x_44 + 8.0 x_14 * x_45 + 4.0 x_14 * x_46 + 5.0 x_14 * x_47 + 17.0 x_15 * x_1 - 9.5 x_15 * x_23 - 8.0 x_15 * x_24 - 7.0 x_15 * x_29 - 6.5 x_15 * x_30 + 1.0 x_15 * x_31 - 5.5 x_15 * x_32 + 5.0 x_15 * x_33 + 12.0 x_15 * x_35 + 5.0 x_15 * x_36 + 4.0 x_15 * x_37 + 8.0 x_15 * x_38 - 4.0 x_15 * x_43 - 15.5 x_15 * x_45 - 19.5 x_15 * x_46 - 2.0 x_15 * x_48 - 22.5 x_15 * x_49 + 4.5 x_16 * x_7 - 15.0 x_16 * x_23 - 21.0 x_16 * x_28 + 12.5 x_16 * x_30 + 24.0 x_16 * x_32 + 4.0 x_16 * x_33 - 18.5 x_16 * x_39 + 21.5 x_16 * x_40 - 4.0 x_16 * x_42 - 13.0 x_16 * x_45 - 17.0 x_16 * x_46 + 18.5 x_17 * x_3 + 0.5 x_17 * x_5 - 4.0 x_17 * x_12 + 8.0 x_17 * x_26 + 20.0 x_17 * x_29 + 21.0 x_17 * x_34 + 8.5 x_17 * x_40 - 12.0 x_17 * x_44 + 15.5 x_17 * x_46 - 12.0 x_17 * x_47 - 12.5 x_17 * x_49 - 1.5 x_18 * x_1 - 7.0 x_18 * x_5 + 16.0 x_18 * x_9 - 17.0 x_18 * x_11 + 0.5 x_18 * x_12 + 18.0 x_18 * x_18 + 23.5 x_18 * x_19 - 23.5 x_18 * x_21 - 13.0 x_18 * x_36 - 3.0 x_18 * x_37 + 8.0 x_18 * x_39 + 15.5 x_18 * x_42 + 13.0 x_18 * x_46 - 7.5 x_18 * x_48 + 5.0 x_18 * x_49 + 23.0 x_19 * x_4 + 9.5 x_19 * x_5 + 13.0 x_19 * x_9 + 15.5 x_19 * x_11 + 3.0 x_19 * x_14 + 23.5 x_19 * x_18 + 14.5 x_19 * x_23 + 18.0 x_19 * x_24 + 16.0 x_19 * x_25 + 19.5 x_19 * x_26 + 10.0 x_19 * x_29 + 13.0 x_19 * x_32 + 1.5 x_19 * x_37 - 4.5 x_19 * x_39 + 11.0 x_19 * x_42 - 18.0 x_19 * x_43 + 22.0 x_19 * x_46 - 3.0 x_19 * x_50 + 24.0 x_20 * x_1 + 20.5 x_20 * x_2 + 4.0 x_20 * x_3 + 8.0 x_20 * x_13 + 5.0 x_20 * x_21 + 12.0 x_20 * x_23 + 17.5 x_20 * x_28 - 17.5 x_20 * x_29 + 10.5 x_20 * x_33 + 17.5 x_20 * x_35 - 10.0 x_20 * x_45 - 16.0 x_20 * x_50 - 21.5 x_21 * x_1 + 24.5 x_21 * x_5 - 4.5 x_21 * x_10 - 23.5 x_21 * x_18 + 5.0 x_21 * x_20 - 8.0 x_21 * x_26 + 23.0 x_21 * x_30 - 14.0 x_21 * x_31 + 23.5 x_21 * x_35 + 22.0 x_21 * x_36 + 15.0 x_21 * x_37 - 5.5 x_21 * x_43 + 6.5 x_21 * x_44 - 17.0 x_21 * x_45 - 6.5 x_21 * x_46 - 19.5 x_21 * x_47 - 6.5 x_22 * x_2 + 24.5 x_22 * x_3 + 17.0 x_22 * x_4 - 23.0 x_22 * x_8 - 2.5 x_22 * x_11 - 2.5 x_22 * x_22 + 5.0 x_22 * x_31 + 10.5 x_22 * x_35 - 12.5 x_22 * x_37 + 21.5 x_22 * x_38 + 16.5 x_22 * x_42 - 19.0 x_22 * x_49 - 14.5 x_23 * x_3 - 22.5 x_23 * x_4 + 15.5 x_23 * x_5 - 9.5 x_23 * x_15 - 15.0 x_23 * x_16 + 14.5 x_23 * x_19 + 12.0 x_23 * x_20 - 10.0 x_23 * x_27 + 7.5 x_23 * x_28 + 16.5 x_23 * x_30 - 15.5 x_23 * x_32 + 21.0 x_23 * x_34 - 19.0 x_23 * x_36 - 7.0 x_23 * x_38 - 5.0 x_23 * x_40 - 18.5 x_23 * x_43 - 18.0 x_23 * x_47 - 15.5 x_23 * x_48 + 14.0 x_24 * x_3 - 5.5 x_24 * x_11 + 24.5 x_24 * x_12 - 8.0 x_24 * x_15 + 18.0 x_24 * x_19 + 6.5 x_24 * x_25 + 10.0 x_24 * x_28 - 22.0 x_24 * x_30 + 18.0 x_24 * x_39 - 7.5 x_24 * x_40 + 1.5 x_24 * x_47 + 16.0 x_25 * x_19 + 6.5 x_25 * x_24 + 17.5 x_25 * x_27 - 22.0 x_25 * x_29 + 23.5 x_25 * x_35 + 23.5 x_25 * x_48 - 9.0 x_25 * x_49 - 15.0 x_25 * x_50 - 14.5 x_26 * x_3 + 21.5 x_26 * x_6 + 24.0 x_26 * x_9 + 8.0 x_26 * x_17 + 19.5 x_26 * x_19 - 8.0 x_26 * x_21 + 0.5 x_26 * x_29 + 4.0 x_26 * x_30 + 23.5 x_26 * x_31 - 13.5 x_26 * x_32 - 3.0 x_26 * x_39 + 10.5 x_26 * x_41 + 24.5 x_26 * x_42 + 13.0 x_27 * x_2 - 10.0 x_27 * x_23 + 17.5 x_27 * x_25 + 17.0 x_27 * x_29 + 8.5 x_27 * x_35 - 6.0 x_27 * x_36 - 22.5 x_27 * x_37 - 7.0 x_27 * x_38 + 22.5 x_27 * x_39 + 24.5 x_27 * x_40 + 6.5 x_27 * x_41 - 24.5 x_27 * x_45 + 6.0 x_27 * x_50 - 1.5 x_28 * x_2 + 20.5 x_28 * x_5 + 17.0 x_28 * x_9 - 21.0 x_28 * x_16 + 17.5 x_28 * x_20 + 7.5 x_28 * x_23 + 10.0 x_28 * x_24 + 5.0 x_28 * x_38 - 11.5 x_28 * x_40 + 18.5 x_28 * x_43 + 8.0 x_28 * x_48 + 19.5 x_28 * x_50 + 21.5 x_29 * x_1 - 14.5 x_29 * x_2 + 5.0 x_29 * x_7 - 7.0 x_29 * x_15 + 20.0 x_29 * x_17 + 10.0 x_29 * x_19 - 17.5 x_29 * x_20 - 22.0 x_29 * x_25 + 0.5 x_29 * x_26 + 17.0 x_29 * x_27 + 21.5 x_29 * x_31 - 20.5 x_29 * x_32 - 9.0 x_29 * x_35 - 13.0 x_29 * x_38 - 7.5 x_29 * x_39 + 20.0 x_29 * x_41 - 22.0 x_29 * x_44 + 22.5 x_30 * x_8 + 17.5 x_30 * x_9 + 9.0 x_30 * x_11 + 13.5 x_30 * x_14 - 6.5 x_30 * x_15 + 12.5 x_30 * x_16 + 23.0 x_30 * x_21 + 16.5 x_30 * x_23 - 22.0 x_30 * x_24 + 4.0 x_30 * x_26 + 5.5 x_30 * x_30 - 3.0 x_30 * x_31 - 22.0 x_30 * x_32 + 3.5 x_30 * x_34 + 17.5 x_30 * x_36 - 4.0 x_30 * x_39 + 11.5 x_30 * x_46 + 4.0 x_31 * x_2 + 12.5 x_31 * x_3 + 13.0 x_31 * x_5 - 17.5 x_31 * x_6 - 6.5 x_31 * x_13 + 1.0 x_31 * x_15 - 14.0 x_31 * x_21 + 5.0 x_31 * x_22 + 23.5 x_31 * x_26 + 21.5 x_31 * x_29 - 3.0 x_31 * x_30 - 18.5 x_31 * x_46 - 22.0 x_32 * x_3 - 21.5 x_32 * x_4 + 10.5 x_32 * x_10 - 1.0 x_32 * x_14 - 5.5 x_32 * x_15 + 24.0 x_32 * x_16 + 13.0 x_32 * x_19 - 15.5 x_32 * x_23 - 13.5 x_32 * x_26 - 20.5 x_32 * x_29 - 22.0 x_32 * x_30 + 8.5 x_32 * x_33 - 23.0 x_32 * x_39 - 23.5 x_32 * x_43 + 18.0 x_32 * x_45 + 17.5 x_33 * x_1 + 4.0 x_33 * x_4 - 9.0 x_33 * x_5 + 5.0 x_33 * x_15 + 4.0 x_33 * x_16 + 10.5 x_33 * x_20 + 8.5 x_33 * x_32 + 5.0 x_33 * x_33 + 21.5 x_33 * x_34 + 15.0 x_33 * x_38 - 3.0 x_33 * x_40 + 4.5 x_33 * x_41 + 15.0 x_33 * x_44 + 17.0 x_33 * x_49 - 9.5 x_33 * x_50 + 15.5 x_34 * x_4 + 8.5 x_34 * x_7 - 21.5 x_34 * x_9 - 11.5 x_34 * x_10 + 7.5 x_34 * x_12 + 8.0 x_34 * x_13 + 21.0 x_34 * x_17 + 21.0 x_34 * x_23 + 3.5 x_34 * x_30 + 21.5 x_34 * x_33 + 15.0 x_34 * x_35 + 19.0 x_34 * x_38 - 1.0 x_34 * x_40 + 13.5 x_34 * x_41 + 14.0 x_34 * x_42 + 10.0 x_35 * x_1 + 18.5 x_35 * x_8 + 4.5 x_35 * x_10 + 13.5 x_35 * x_11 + 12.0 x_35 * x_15 + 17.5 x_35 * x_20 + 23.5 x_35 * x_21 + 10.5 x_35 * x_22 + 23.5 x_35 * x_25 + 8.5 x_35 * x_27 - 9.0 x_35 * x_29 + 15.0 x_35 * x_34 - 5.5 x_35 * x_38 + 15.0 x_35 * x_39 - 19.0 x_35 * x_40 - 23.0 x_35 * x_44 + 3.0 x_35 * x_47 - 7.0 x_36 * x_8 - 23.0 x_36 * x_14 + 5.0 x_36 * x_15 - 13.0 x_36 * x_18 + 22.0 x_36 * x_21 - 19.0 x_36 * x_23 - 6.0 x_36 * x_27 + 17.5 x_36 * x_30 - 11.0 x_36 * x_37 - 4.5 x_36 * x_39 + 11.0 x_36 * x_50 + 22.5 x_37 * x_3 + 9.0 x_37 * x_4 + 24.5 x_37 * x_5 - 3.0 x_37 * x_12 + 4.0 x_37 * x_15 - 3.0 x_37 * x_18 + 1.5 x_37 * x_19 + 15.0 x_37 * x_21 - 12.5 x_37 * x_22 - 22.5 x_37 * x_27 - 11.0 x_37 * x_36 - 7.5 x_37 * x_37 + 23.0 x_37 * x_38 + 13.0 x_37 * x_41 + 10.5 x_37 * x_42 - 3.0 x_37 * x_44 + 8.0 x_37 * x_49 - 22.0 x_38 * x_2 - 7.5 x_38 * x_4 + 20.5 x_38 * x_7 - 19.5 x_38 * x_10 - 5.5 x_38 * x_11 + 8.0 x_38 * x_15 + 21.5 x_38 * x_22 - 7.0 x_38 * x_23 - 7.0 x_38 * x_27 + 5.0 x_38 * x_28 - 13.0 x_38 * x_29 + 15.0 x_38 * x_33 + 19.0 x_38 * x_34 - 5.5 x_38 * x_35 + 23.0 x_38 * x_37 + 19.5 x_38 * x_40 - 11.5 x_38 * x_45 - 9.0 x_38 * x_47 + 5.0 x_38 * x_50 + 17.0 x_39 * x_3 - 4.0 x_39 * x_4 - 18.5 x_39 * x_6 - 8.0 x_39 * x_7 + 6.5 x_39 * x_9 + 18.5 x_39 * x_10 + 8.5 x_39 * x_12 - 18.5 x_39 * x_16 + 8.0 x_39 * x_18 - 4.5 x_39 * x_19 + 18.0 x_39 * x_24 - 3.0 x_39 * x_26 + 22.5 x_39 * x_27 - 7.5 x_39 * x_29 - 4.0 x_39 * x_30 - 23.0 x_39 * x_32 + 15.0 x_39 * x_35 - 4.5 x_39 * x_36 + 3.0 x_39 * x_40 + 13.0 x_39 * x_48 + 1.0 x_40 * x_4 + 13.0 x_40 * x_5 - 13.5 x_40 * x_11 + 6.0 x_40 * x_14 + 21.5 x_40 * x_16 + 8.5 x_40 * x_17 - 5.0 x_40 * x_23 - 7.5 x_40 * x_24 + 24.5 x_40 * x_27 - 11.5 x_40 * x_28 - 3.0 x_40 * x_33 - 1.0 x_40 * x_34 - 19.0 x_40 * x_35 + 19.5 x_40 * x_38 + 3.0 x_40 * x_39 - 12.0 x_40 * x_47 + 21.5 x_40 * x_48 - 19.5 x_41 * x_12 - 1.0 x_41 * x_13 + 10.5 x_41 * x_26 + 6.5 x_41 * x_27 + 20.0 x_41 * x_29 + 4.5 x_41 * x_33 + 13.5 x_41 * x_34 + 13.0 x_41 * x_37 - 5.0 x_41 * x_50 + 17.5 x_42 * x_3 - 6.5 x_42 * x_9 + 4.0 x_42 * x_10 + 10.0 x_42 * x_12 - 20.0 x_42 * x_14 - 4.0 x_42 * x_16 + 15.5 x_42 * x_18 + 11.0 x_42 * x_19 + 16.5 x_42 * x_22 + 24.5 x_42 * x_26 + 14.0 x_42 * x_34 + 10.5 x_42 * x_37 - 18.5 x_42 * x_43 + 6.0 x_42 * x_44 + 8.0 x_42 * x_47 + 11.5 x_42 * x_50 + 13.0 x_43 * x_1 - 17.0 x_43 * x_4 - 4.0 x_43 * x_15 - 18.0 x_43 * x_19 - 5.5 x_43 * x_21 - 18.5 x_43 * x_23 + 18.5 x_43 * x_28 - 23.5 x_43 * x_32 - 18.5 x_43 * x_42 + 7.5 x_43 * x_44 + 5.5 x_43 * x_45 - 11.0 x_43 * x_47 - 7.0 x_43 * x_49 + 23.5 x_44 * x_1 - 21.0 x_44 * x_2 + 23.0 x_44 * x_5 - 4.5 x_44 * x_6 + 9.0 x_44 * x_8 + 3.0 x_44 * x_9 - 1.5 x_44 * x_12 - 6.0 x_44 * x_14 - 12.0 x_44 * x_17 + 6.5 x_44 * x_21 - 22.0 x_44 * x_29 + 15.0 x_44 * x_33 - 23.0 x_44 * x_35 - 3.0 x_44 * x_37 + 6.0 x_44 * x_42 + 7.5 x_44 * x_43 + 20.0 x_44 * x_46 + 14.0 x_44 * x_49 + 14.5 x_45 * x_3 + 20.5 x_45 * x_4 - 23.5 x_45 * x_6 - 10.0 x_45 * x_8 + 8.0 x_45 * x_14 - 15.5 x_45 * x_15 - 13.0 x_45 * x_16 - 10.0 x_45 * x_20 - 17.0 x_45 * x_21 - 24.5 x_45 * x_27 + 18.0 x_45 * x_32 - 11.5 x_45 * x_38 + 5.5 x_45 * x_43 - 11.5 x_45 * x_45 + 14.5 x_46 * x_3 + 23.5 x_46 * x_6 + 24.5 x_46 * x_12 + 4.0 x_46 * x_14 - 19.5 x_46 * x_15 - 17.0 x_46 * x_16 + 15.5 x_46 * x_17 + 13.0 x_46 * x_18 + 22.0 x_46 * x_19 - 6.5 x_46 * x_21 + 11.5 x_46 * x_30 - 18.5 x_46 * x_31 + 20.0 x_46 * x_44 + 4.5 x_46 * x_47 + 13.0 x_46 * x_48 + 17.0 x_46 * x_49 + 7.5 x_47 * x_1 + 1.0 x_47 * x_8 - 19.0 x_47 * x_11 + 5.0 x_47 * x_14 - 12.0 x_47 * x_17 - 19.5 x_47 * x_21 - 18.0 x_47 * x_23 + 1.5 x_47 * x_24 + 3.0 x_47 * x_35 - 9.0 x_47 * x_38 - 12.0 x_47 * x_40 + 8.0 x_47 * x_42 - 11.0 x_47 * x_43 + 4.5 x_47 * x_46 + 16.0 x_48 * x_2 + 20.0 x_48 * x_3 - 2.0 x_48 * x_15 - 7.5 x_48 * x_18 - 15.5 x_48 * x_23 + 23.5 x_48 * x_25 + 8.0 x_48 * x_28 + 13.0 x_48 * x_39 + 21.5 x_48 * x_40 + 13.0 x_48 * x_46 + 20.5 x_48 * x_50 + 17.0 x_49 * x_6 + 21.5 x_49 * x_12 - 22.5 x_49 * x_15 - 12.5 x_49 * x_17 + 5.0 x_49 * x_18 - 19.0 x_49 * x_22 - 9.0 x_49 * x_25 + 17.0 x_49 * x_33 + 8.0 x_49 * x_37 - 7.0 x_49 * x_43 + 14.0 x_49 * x_44 + 17.0 x_49 * x_46 - 16.0 x_49 * x_50 - 24.0 x_50 * x_2 - 13.0 x_50 * x_7 + 22.5 x_50 * x_10 - 8.0 x_50 * x_13 - 3.0 x_50 * x_19 - 16.0 x_50 * x_20 - 15.0 x_50 * x_25 + 6.0 x_50 * x_27 + 19.5 x_50 * x_28 - 9.5 x_50 * x_33 + 11.0 x_50 * x_36 + 5.0 x_50 * x_38 - 5.0 x_50 * x_41 + 11.5 x_50 * x_42 + 20.5 x_50 * x_48 - 16.0 x_50 * x_49 - 17.5 x_50 * x_50 ] + 0.0 x_1 + 15.0 x_2 + 0.0 x_3 - 19.0 x_4 + 0.0 x_5 + 17.0 x_6 - 25.0 x_7 + 0.0 x_8 + 0.0 x_9 + 0.0 x_10 + 0.0 x_11 + 0.0 x_12 + 0.0 x_13 + 11.0 x_14 + 0.0 x_15 + 0.0 x_16 + 0.0 x_17 + 0.0 x_18 + 0.0 x_19 + 0.0 x_20 + 0.0 x_21 + 0.0 x_22 + 0.0 x_23 + 0.0 x_24 + 0.0 x_25 + 0.0 x_26 + 0.0 x_27 + 0.0 x_28 - 28.0 x_29 + 0.0 x_30 + 0.0 x_31 + 6.0 x_32 + 0.0 x_33 + 0.0 x_34 + 0.0 x_35 + 0.0 x_36 + 0.0 x_37 - 3.0 x_38 - 22.0 x_39 + 0.0 x_40 + 0.0 x_41 + 33.0 x_42 + 0.0 x_43 - 9.0 x_44 + 0.0 x_45 + 6.0 x_46 + 0.0 x_47 + 0.0 x_48 + 0.0 x_49 + 0.0 x_50

Subject To
 e2: [  x_1 * x_6 ] = 0.0
 e3: [  x_1 * x_18 ] = 0.0
 e4: [  x_1 * x_21 ] = 0.0
 e5: [  x_1 * x_33 ] = 0.0
 e6: [  x_2 * x_44 ] = 0.0
 e7: [  x_3 * x_1 ] = 0.0
 e8: [  x_3 * x_2 ] = 0.0
 e9: [  x_3 * x_9 ] = 0.0
 e10: [  x_4 * x_22 ] = 0.0
 e11: [  x_4 * x_34 ] = 0.0
 e12: [  x_5 * x_17 ] = 0.0
 e13: [  x_5 * x_18 ] = 0.0
 e14: [  x_5 * x_21 ] = 0.0
 e15: [  x_5 * x_31 ] = 0.0
 e16: [  x_6 * x_11 ] = 0.0
 e17: [  x_6 * x_26 ] = 0.0
 e18: [  x_6 * x_44 ] = 0.0
 e19: [  x_7 * x_29 ] = 0.0
 e20: [  x_8 * x_12 ] = 0.0
 e21: [  x_10 * x_13 ] = 0.0
 e22: [  x_10 * x_32 ] = 0.0
 e23: [  x_11 * x_18 ] = 0.0
 e24: [  x_14 * x_7 ] = 0.0
 e25: [  x_14 * x_13 ] = 0.0
 e26: [  x_15 * x_30 ] = 0.0
 e27: [  x_15 * x_31 ] = 0.0
 e28: [  x_15 * x_33 ] = 0.0
 e29: [  x_15 * x_48 ] = 0.0
 e30: [  x_16 * x_28 ] = 0.0
 e31: [  x_17 * x_40 ] = 0.0
 e32: [  x_17 * x_47 ] = 0.0
 e33: [  x_18 * x_5 ] = 0.0
 e34: [  x_18 * x_36 ] = 0.0
 e35: [  x_18 * x_48 ] = 0.0
 e36: [  x_19 * x_9 ] = 0.0
 e37: [  x_19 * x_26 ] = 0.0
 e38: [  x_20 * x_29 ] = 0.0
 e39: [  x_21 * x_1 ] = 0.0
 e40: [  x_21 * x_20 ] = 0.0
 e41: [  x_21 * x_31 ] = 0.0
 e42: [  x_22 * x_4 ] = 0.0
 e43: [  x_22 * x_11 ] = 0.0
 e44: [  x_22 * x_31 ] = 0.0
 e45: [  x_23 * x_40 ] = 0.0
 e46: [  x_23 * x_47 ] = 0.0
 e47: [  x_24 * x_3 ] = 0.0
 e48: [  x_24 * x_11 ] = 0.0
 e49: [  x_24 * x_12 ] = 0.0
 e50: [  x_24 * x_15 ] = 0.0
 e51: [  x_25 * x_29 ] = 0.0
 e52: [  x_26 * x_21 ] = 0.0
 e53: [  x_27 * x_38 ] = 0.0
 e54: [  x_28 * x_43 ] = 0.0
 e55: [  x_29 * x_31 ] = 0.0
 e56: [  x_29 * x_41 ] = 0.0
 e57: [  x_30 * x_32 ] = 0.0
 e58: [  x_30 * x_34 ] = 0.0
 e59: [  x_31 * x_2 ] = 0.0
 e60: [  x_31 * x_5 ] = 0.0
 e61: [  x_32 * x_33 ] = 0.0
 e62: [  x_34 * x_23 ] = 0.0
 e63: [  x_34 * x_38 ] = 0.0
 e64: [  x_35 * x_25 ] = 0.0
 e65: [  x_35 * x_38 ] = 0.0
 e66: [  x_36 * x_37 ] = 0.0
 e67: [  x_37 * x_21 ] = 0.0
 e68: [  x_38 * x_45 ] = 0.0
 e69: [  x_38 * x_50 ] = 0.0
 e70: [  x_39 * x_10 ] = 0.0
 e71: [  x_40 * x_28 ] = 0.0
 e72: [  x_40 * x_35 ] = 0.0
 e73: [  x_40 * x_38 ] = 0.0
 e74: [  x_40 * x_39 ] = 0.0
 e75: [  x_41 * x_37 ] = 0.0
 e76: [  x_42 * x_44 ] = 0.0
 e77: [  x_44 * x_12 ] = 0.0
 e78: [  x_45 * x_6 ] = 0.0
 e79: [  x_45 * x_16 ] = 0.0
 e80: [  x_45 * x_27 ] = 0.0
 e81: [  x_45 * x_38 ] = 0.0
 e82: [  x_46 * x_16 ] = 0.0
 e83: [  x_47 * x_8 ] = 0.0
 e84: [  x_47 * x_38 ] = 0.0
 e85: [  x_48 * x_25 ] = 0.0
 e86: [  x_48 * x_50 ] = 0.0
 e87: [  x_49 * x_44 ] = 0.0
 e88: [  x_50 * x_10 ] = 0.0
 e89: [  x_50 * x_48 ] = 0.0

Bounds
 x_1 <= 1.0
 x_2 <= 1.0
 x_3 <= 1.0
 x_4 <= 1.0
 x_5 <= 1.0
 x_6 <= 1.0
 x_7 <= 1.0
 x_8 <= 1.0
 x_9 <= 1.0
 x_10 <= 1.0
 x_11 <= 1.0
 x_12 <= 1.0
 x_13 <= 1.0
 x_14 <= 1.0
 x_15 <= 1.0
 x_16 <= 1.0
 x_17 <= 1.0
 x_18 <= 1.0
 x_19 <= 1.0
 x_20 <= 1.0
 x_21 <= 1.0
 x_22 <= 1.0
 x_23 <= 1.0
 x_24 <= 1.0
 x_25 <= 1.0
 x_26 <= 1.0
 x_27 <= 1.0
 x_28 <= 1.0
 x_29 <= 1.0
 x_30 <= 1.0
 x_31 <= 1.0
 x_32 <= 1.0
 x_33 <= 1.0
 x_34 <= 1.0
 x_35 <= 1.0
 x_36 <= 1.0
 x_37 <= 1.0
 x_38 <= 1.0
 x_39 <= 1.0
 x_40 <= 1.0
 x_41 <= 1.0
 x_42 <= 1.0
 x_43 <= 1.0
 x_44 <= 1.0
 x_45 <= 1.0
 x_46 <= 1.0
 x_47 <= 1.0
 x_48 <= 1.0
 x_49 <= 1.0
 x_50 <= 1.0

End